p cnf 193 447
192 -193 0
-192 193 0
24 192 0
-24 -192 0
190 -191 0
-190 191 0
23 190 0
-23 -190 0
188 -189 0
-188 189 0
22 188 0
-22 -188 0
186 -187 0
-186 187 0
21 186 0
-21 -186 0
184 -185 0
-184 185 0
20 184 0
-20 -184 0
182 -183 0
-182 183 0
19 182 0
-19 -182 0
180 -181 0
-180 181 0
18 180 0
-18 -180 0
178 -179 0
-178 179 0
17 178 0
-17 -178 0
176 -177 0
-176 177 0
175 176 0
-175 -176 0
-175 -16 -174 -14 0
175 16 0
175 174 0
175 14 0
15 174 0
-15 -174 0
172 173 0
-172 -173 0
172 171 167 0
-172 -171 0
-172 -167 0
171 -170 -13 0
-171 170 0
-171 13 0
169 170 0
-169 -170 0
168 169 0
-168 -169 0
168 16 15 14 0
-168 -16 0
-168 -15 0
-168 -14 0
167 -169 -12 0
-167 169 0
-167 12 0
165 166 0
-165 -166 0
165 164 162 0
-165 -164 0
-165 -162 0
164 -163 -11 0
-164 163 0
-164 11 0
169 163 0
-169 -163 0
162 -169 -10 0
-162 169 0
-162 10 0
160 161 0
-160 -161 0
160 159 157 0
-160 -159 0
-160 -157 0
159 -158 -9 0
-159 158 0
-159 9 0
169 158 0
-169 -158 0
157 -169 -8 0
-157 169 0
-157 8 0
155 156 0
-155 -156 0
155 154 152 0
-155 -154 0
-155 -152 0
154 -153 -7 0
-154 153 0
-154 7 0
169 153 0
-169 -153 0
152 -169 -6 0
-152 169 0
-152 6 0
-151 -14 -150 0
151 14 0
151 150 0
150 149 148 0
-150 -149 0
-150 -148 0
15 149 0
-15 -149 0
16 148 0
-16 -148 0
-147 -146 -145 0
147 146 0
147 145 0
5 146 0
-5 -146 0
144 145 0
-144 -145 0
144 143 124 0
-144 -143 0
-144 -124 0
143 -142 -139 0
-143 142 0
-143 139 0
141 142 0
-141 -142 0
140 141 0
-140 -141 0
140 176 168 0
-140 -176 0
-140 -168 0
138 139 0
-138 -139 0
138 137 130 0
-138 -137 0
-138 -130 0
137 -136 -132 -188 0
-137 136 0
-137 132 0
-137 188 0
135 136 0
-135 -136 0
-135 -134 -186 0
135 134 0
135 186 0
133 134 0
-133 -134 0
-133 -178 -6 0
133 178 0
133 6 0
131 132 0
-131 -132 0
-131 -178 -8 0
131 178 0
131 8 0
130 -129 -128 0
-130 129 0
-130 128 0
-129 136 132 188 0
129 -136 0
129 -132 0
129 -188 0
128 127 125 0
-128 -127 0
-128 -125 0
127 -136 -126 0
-127 136 0
-127 126 0
-126 132 188 0
126 -132 0
126 -188 0
125 -132 -188 0
-125 132 0
-125 188 0
124 -141 -186 0
-124 141 0
-124 186 0
-123 -146 -122 0
123 146 0
123 122 0
121 122 0
-121 -122 0
121 120 106 0
-121 -120 0
-121 -106 0
120 -119 -118 0
-120 119 0
-120 118 0
141 119 0
-141 -119 0
117 118 0
-117 -118 0
117 116 112 0
-117 -116 0
-117 -112 0
116 -115 -114 -190 0
-116 115 0
-116 114 0
-116 190 0
128 115 0
-128 -115 0
113 114 0
-113 -114 0
-113 -178 -10 0
113 178 0
113 10 0
112 -111 -110 0
-112 111 0
-112 110 0
-111 115 114 190 0
111 -115 0
111 -114 0
111 -190 0
110 109 107 0
-110 -109 0
-110 -107 0
109 -115 -108 0
-109 115 0
-109 108 0
-108 114 190 0
108 -114 0
108 -190 0
107 -114 -190 0
-107 114 0
-107 190 0
106 -141 -188 0
-106 141 0
-106 188 0
-105 -146 -104 0
105 146 0
105 104 0
103 104 0
-103 -104 0
103 102 92 0
-103 -102 0
-103 -92 0
102 -101 -100 0
-102 101 0
-102 100 0
141 101 0
-141 -101 0
99 100 0
-99 -100 0
99 98 93 0
-99 -98 0
-99 -93 0
98 -97 -96 0
-98 97 0
-98 96 0
110 97 0
-110 -97 0
-96 95 192 0
96 -95 0
96 -192 0
94 95 0
-94 -95 0
-94 -178 -12 0
94 178 0
94 12 0
93 -95 -192 0
-93 95 0
-93 192 0
92 -141 -192 0
-92 141 0
-92 192 0
-91 -146 -90 0
91 146 0
91 90 0
89 90 0
-89 -90 0
89 88 81 0
-89 -88 0
-89 -81 0
88 -87 -86 0
-88 87 0
-88 86 0
141 87 0
-141 -87 0
85 86 0
-85 -86 0
85 84 83 0
-85 -84 0
-85 -83 0
84 -97 -95 -192 0
-84 97 0
-84 95 0
-84 192 0
83 -82 -99 0
-83 82 0
-83 99 0
-82 97 95 192 0
82 -97 0
82 -95 0
82 -192 0
81 -141 -190 0
-81 141 0
-81 190 0
80 79 78 0
-80 -79 0
-80 -78 0
14 79 0
-14 -79 0
-78 -15 -77 0
78 15 0
78 77 0
76 77 0
-76 -77 0
16 76 0
-16 -76 0
75 74 5 0
-75 -74 0
-75 -5 0
-74 -73 -71 0
74 73 0
74 71 0
-73 14 72 0
73 -14 0
73 -72 0
78 72 0
-78 -72 0
-71 -14 -72 0
71 14 0
71 72 0
70 69 5 0
-70 -69 0
-70 -5 0
-69 -68 -66 0
69 68 0
69 66 0
-68 15 67 0
68 -15 0
68 -67 0
67 176 148 0
-67 -176 0
-67 -148 0
-66 -15 -67 0
66 15 0
66 67 0
65 64 5 0
-65 -64 0
-65 -5 0
63 64 0
-63 -64 0
-63 -16 -62 0
63 16 0
63 62 0
176 62 0
-176 -62 0
61 60 52 0
-61 -60 0
-61 -52 0
60 -59 -58 0
-60 59 0
-60 58 0
140 59 0
-140 -59 0
57 58 0
-57 -58 0
57 56 53 0
-57 -56 0
-57 -53 0
56 -55 -4 0
-56 55 0
-56 4 0
54 55 0
-54 -55 0
175 54 0
-175 -54 0
53 -54 -184 0
-53 54 0
-53 184 0
52 -140 -51 0
-52 140 0
-52 51 0
50 51 0
-50 -51 0
-50 -49 -135 0
50 49 0
50 135 0
-49 134 186 0
49 -134 0
49 -186 0
48 47 41 0
-48 -47 0
-48 -41 0
47 -59 -46 0
-47 59 0
-47 46 0
45 46 0
-45 -46 0
45 44 42 0
-45 -44 0
-45 -42 0
44 -43 -3 0
-44 43 0
-44 3 0
54 43 0
-54 -43 0
42 -54 -182 0
-42 54 0
-42 182 0
41 -140 -184 0
-41 140 0
-41 184 0
40 39 33 0
-40 -39 0
-40 -33 0
39 -59 -38 0
-39 59 0
-39 38 0
37 38 0
-37 -38 0
37 36 34 0
-37 -36 0
-37 -34 0
36 -35 -2 0
-36 35 0
-36 2 0
54 35 0
-54 -35 0
34 -54 -180 0
-34 54 0
-34 180 0
33 -140 -182 0
-33 140 0
-33 182 0
32 31 25 0
-32 -31 0
-32 -25 0
31 -59 -30 0
-31 59 0
-31 30 0
29 30 0
-29 -30 0
29 28 26 0
-29 -28 0
-29 -26 0
28 -27 -1 0
-28 27 0
-28 1 0
54 27 0
-54 -27 0
26 -54 -178 0
-26 54 0
-26 178 0
25 -140 -180 0
-25 140 0
-25 180 0
